NAME : KROB149A
TYPE : PDTSP
DIMENSION : 149
EDGE_WEIGHT_TYPE : EUC_2D
NODE_COORD_SECTION
1 1357 1905
2 2650 802
3 1774 107
4 1307 964
5 3806 746
6 2687 1353
7 43 1957
8 3092 1668
9 185 1542
10 834 629
11 40 462
12 1183 1391
13 2048 1628
14 1097 643
15 1838 1732
16 234 1118
17 3314 1881
18 737 1285
19 779 777
20 2312 1949
21 2576 189
22 3078 1541
23 2781 478
24 705 1812
25 3409 1917
26 323 1714
27 1660 1556
28 3729 1188
29 693 1383
30 2361 640
31 2433 1538
32 554 1825
33 913 317
34 3586 1909
35 2636 727
36 1000 457
37 482 1337
38 3704 1082
39 3635 1174
40 1362 1526
41 2049 417
42 2552 1909
43 3939 640
44 219 898
45 812 351
46 901 1552
47 2513 1572
48 242 584
49 826 1226
50 3278 799
51 86 1065
52 14 454
53 1327 1893
54 2773 1286
55 2469 1838
56 3835 963
57 1031 428
58 3853 1712
59 1868 197
60 1544 863
61 457 1607
62 3174 1064
63 192 1004
64 2232 1374
65 396 828
66 2365 1649
67 2499 658
68 1410 307
69 2990 214
70 3646 1018
71 3394 1028
72 1779 90
73 1058 372
74 2933 1459
75 3099 173
76 2178 978
77 138 1610
78 2082 1753
79 2302 1127
80 805 272
81 22 1617
82 3213 1085
83 99 536
84 1533 1780
85 3564 676
86 29 6
87 3808 1375
88 2221 291
89 3499 1885
90 3124 408
91 781 671
92 1027 1041
93 3249 378
94 3297 491
95 213 220
96 721 186
97 3736 1542
98 868 731
99 960 303
100 3825 1101
101 2779 435
102 201 693
103 2502 1274
104 765 833
105 3105 1823
106 1937 1400
107 3364 1498
108 3702 1624
109 2164 1874
110 3019 189
111 3098 1594
112 3239 1376
113 3359 1693
114 2081 1011
115 1398 1100
116 618 1953
117 1878 59
118 3803 886
119 397 1217
120 3035 152
121 2502 146
122 3230 380
123 3479 1023
124 958 1670
125 3423 1241
126 78 1066
127 96 691
128 3431 78
129 2053 1461
130 3048 1
131 571 1711
132 3393 782
133 2835 1472
134 144 1185
135 923 108
136 989 1997
137 3061 1211
138 2977 39
139 1668 658
140 878 715
141 678 1599
142 1086 868
143 640 110
144 3551 1673
145 106 1267
146 2243 1332
147 3796 1401
148 2643 1320
149 48 267
PICKUP_AND_DELIVERY_SECTION
1 0 0 0 0 0 0
2 0 0 0 0 35 0
3 0 0 0 0 41 0
4 0 0 0 0 0 60
5 0 0 0 0 0 94
6 0 0 0 0 0 76
7 0 0 0 0 81 0
8 0 0 0 0 25 0
9 0 0 0 0 26 0
10 0 0 0 0 0 19
11 0 0 0 0 0 48
12 0 0 0 0 45 0
13 0 0 0 0 0 129
14 0 0 0 0 142 0
15 0 0 0 0 0 106
16 0 0 0 0 134 0
17 0 0 0 0 34 0
18 0 0 0 0 104 0
19 0 0 0 0 10 0
20 0 0 0 0 0 31
21 0 0 0 0 0 105
22 0 0 0 0 133 0
23 0 0 0 0 0 101
24 0 0 0 0 0 124
25 0 0 0 0 0 8
26 0 0 0 0 0 9
27 0 0 0 0 0 109
28 0 0 0 0 0 100
29 0 0 0 0 49 0
30 0 0 0 0 88 0
31 0 0 0 0 20 0
32 0 0 0 0 0 113
33 0 0 0 0 0 91
34 0 0 0 0 0 17
35 0 0 0 0 0 2
36 0 0 0 0 57 0
37 0 0 0 0 145 0
38 0 0 0 0 43 0
39 0 0 0 0 130 0
40 0 0 0 0 84 0
41 0 0 0 0 0 3
42 0 0 0 0 66 0
43 0 0 0 0 0 38
44 0 0 0 0 65 0
45 0 0 0 0 0 12
46 0 0 0 0 0 53
47 0 0 0 0 148 0
48 0 0 0 0 11 0
49 0 0 0 0 0 29
50 0 0 0 0 0 71
51 0 0 0 0 77 0
52 0 0 0 0 0 86
53 0 0 0 0 46 0
54 0 0 0 0 0 137
55 0 0 0 0 0 78
56 0 0 0 0 0 118
57 0 0 0 0 0 36
58 0 0 0 0 97 0
59 0 0 0 0 0 95
60 0 0 0 0 4 0
61 0 0 0 0 0 141
62 0 0 0 0 0 82
63 0 0 0 0 0 102
64 0 0 0 0 103 0
65 0 0 0 0 0 44
66 0 0 0 0 0 42
67 0 0 0 0 79 0
68 0 0 0 0 72 0
69 0 0 0 0 138 0
70 0 0 0 0 0 123
71 0 0 0 0 50 0
72 0 0 0 0 0 68
73 0 0 0 0 0 99
74 0 0 0 0 0 89
75 0 0 0 0 0 120
76 0 0 0 0 6 0
77 0 0 0 0 0 51
78 0 0 0 0 55 0
79 0 0 0 0 0 67
80 0 0 0 0 135 0
81 0 0 0 0 0 7
82 0 0 0 0 62 0
83 0 0 0 0 127 0
84 0 0 0 0 0 40
85 0 0 0 0 0 132
86 0 0 0 0 52 0
87 0 0 0 0 107 0
88 0 0 0 0 0 30
89 0 0 0 0 74 0
90 0 0 0 0 93 0
91 0 0 0 0 33 0
92 0 0 0 0 140 0
93 0 0 0 0 0 90
94 0 0 0 0 5 0
95 0 0 0 0 59 0
96 0 0 0 0 0 143
97 0 0 0 0 0 58
98 0 0 0 0 115 0
99 0 0 0 0 73 0
100 0 0 0 0 28 0
101 0 0 0 0 23 0
102 0 0 0 0 63 0
103 0 0 0 0 0 64
104 0 0 0 0 0 18
105 0 0 0 0 21 0
106 0 0 0 0 15 0
107 0 0 0 0 0 87
108 0 0 0 0 0 144
109 0 0 0 0 27 0
110 0 0 0 0 0 122
111 0 0 0 0 0 112
112 0 0 0 0 111 0
113 0 0 0 0 32 0
114 0 0 0 0 146 0
115 0 0 0 0 0 98
116 0 0 0 0 119 0
117 0 0 0 0 0 128
118 0 0 0 0 56 0
119 0 0 0 0 0 116
120 0 0 0 0 75 0
121 0 0 0 0 0 149
122 0 0 0 0 110 0
123 0 0 0 0 70 0
124 0 0 0 0 24 0
125 0 0 0 0 147 0
126 0 0 0 0 139 0
127 0 0 0 0 0 83
128 0 0 0 0 117 0
129 0 0 0 0 13 0
130 0 0 0 0 0 39
131 0 0 0 0 136 0
132 0 0 0 0 85 0
133 0 0 0 0 0 22
134 0 0 0 0 0 16
135 0 0 0 0 0 80
136 0 0 0 0 0 131
137 0 0 0 0 54 0
138 0 0 0 0 0 69
139 0 0 0 0 0 126
140 0 0 0 0 0 92
141 0 0 0 0 61 0
142 0 0 0 0 0 14
143 0 0 0 0 96 0
144 0 0 0 0 108 0
145 0 0 0 0 0 37
146 0 0 0 0 0 114
147 0 0 0 0 0 125
148 0 0 0 0 0 47
149 0 0 0 0 121 0
DEPOT_SECTION
1 
-1
EOF
